(set-logic QF_S)
(set-option :parse-transducers true)
(set-option :produce-models true)
(define-fun-rec toLower ((x String) (y String)) Bool
   (or (and (= x "") (= y ""))
       (and (not (= x "")) (not (= y ""))
           (= (char.code (str.head y))
               (ite (and (<= 65 (char.code (str.head x)))
                       (<= (char.code (str.head x)) 90))
                   (+ (char.code (str.head x)) 32)
                   (char.code (str.head x))))
           (toLower (str.tail x) (str.tail y))))
)
(declare-fun sym249 () String)
(declare-fun sym404 () String)
(declare-fun sym646 () String)
(declare-fun sym484 () String)
(declare-fun sym440 () String)
(declare-fun sym200 () String)
(declare-fun sym323 () String)
(declare-fun sym566 () String)
(declare-fun sym600 () String)
(declare-fun sym160 () String)
(declare-fun sym284 () String)
(declare-fun sym414 () String)
(declare-fun sym656 () String)
(declare-fun sym338 () String)
(declare-fun sym494 () String)
(declare-fun sym450 () String)
(declare-fun sym374 () String)
(declare-fun sym298 () String)
(declare-fun sym210 () String)
(declare-fun sym135 () String)
(declare-fun sym576 () String)
(declare-fun sym532 () String)
(declare-fun sym610 () String)
(declare-fun sym170 () String)
(declare-fun sym690 () String)
(declare-fun sym700 () String)
(declare-fun sym348 () String)
(declare-fun sym20 () String)
(declare-fun sym504 () String)
(declare-fun sym384 () String)
(declare-fun sym264 () String)
(declare-fun sym145 () String)
(declare-fun sym542 () String)
(declare-fun sym620 () String)
(declare-fun sym224 () String)
(declare-fun sym666 () String)
(declare-fun sym180 () String)
(declare-fun sym460 () String)
(declare-fun sym239 () String)
(declare-fun sym636 () String)
(declare-fun sym518 () String)
(declare-fun sym274 () String)
(declare-fun sym430 () String)
(declare-fun sym113 () String)
(declare-fun sym313 () String)
(declare-fun sym676 () String)
(declare-fun sym358 () String)
(declare-fun sym556 () String)
(declare-fun sym710 () String)
(declare-fun sym190 () String)
(declare-fun sym590 () String)
(declare-fun sym470 () String)
(declare-fun sym394 () String)
(declare-fun L27  () String)
(declare-fun L35  () String)
(declare-fun L79  () String)
(declare-fun L7  () String)
(declare-fun L87  () String)
(declare-fun L11  () String)
(declare-fun L3  () String)
(declare-fun L83  () String)
(declare-fun L102  () String)
(declare-fun L38  () String)
(declare-fun L18  () String)
(declare-fun L34  () String)
(declare-fun L78  () String)
(declare-fun L46  () String)
(declare-fun L14  () String)
(declare-fun L58  () String)
(declare-fun L26  () String)
(declare-fun L30  () String)
(declare-fun L74  () String)
(declare-fun L8  () String)
(declare-fun L42  () String)
(declare-fun L10  () String)
(declare-fun L54  () String)
(declare-fun L98  () String)
(declare-fun L22  () String)
(declare-fun L66  () String)
(declare-fun L70  () String)
(declare-fun L4  () String)
(declare-fun L50  () String)
(declare-fun L94  () String)
(declare-fun L62  () String)
(declare-fun L0  () String)
(declare-fun L90  () String)
(declare-fun L104  () String)
(declare-fun L85  () String)
(declare-fun L5  () String)
(declare-fun L21  () String)
(declare-fun L81  () String)
(declare-fun L1  () String)
(declare-fun L100  () String)
(declare-fun L16  () String)
(declare-fun L28  () String)
(declare-fun L12  () String)
(declare-fun L56  () String)
(declare-fun L24  () String)
(declare-fun L68  () String)
(declare-fun L36  () String)
(declare-fun L48  () String)
(declare-fun L52  () String)
(declare-fun L96  () String)
(declare-fun L20  () String)
(declare-fun L64  () String)
(declare-fun L32  () String)
(declare-fun L76  () String)
(declare-fun L6  () String)
(declare-fun L44  () String)
(declare-fun L92  () String)
(declare-fun L60  () String)
(declare-fun L72  () String)
(declare-fun L2  () String)
(declare-fun L40  () String)
(assert (toLower sym298  L40 ))
(assert (toLower sym504  L2 ))
(assert (toLower sym590  L72 ))
(assert (toLower sym676  L60 ))
(assert (toLower sym556  L92 ))
(assert (toLower sym313  L44 ))
(assert (toLower sym404  L6 ))
(assert (toLower sym200  L76 ))
(assert (toLower sym224  L32 ))
(assert (toLower sym532  L64 ))
(assert (toLower sym358  L20 ))
(assert (toLower sym518  L96 ))
(assert (toLower sym135  L52 ))
(assert (toLower sym470  L48 ))
(assert (toLower sym160  L36 ))
(assert (toLower sym542  L68 ))
(assert (toLower sym374  L24 ))
(assert (toLower sym338  L56 ))
(assert (toLower sym239  L12 ))
(assert (toLower sym264  L28 ))
(assert (toLower sym566  L16 ))
(assert (toLower sym440  L100 ))
(assert (toLower "description"  L1 ))
(assert (toLower sym145  L81 ))
(assert (toLower "type"  L21 ))
(assert (toLower "database"  L5 ))
(assert (toLower sym170  L85 ))
(assert (toLower sym610  L104 ))
(assert (toLower sym274  L90 ))
(assert (toLower sym494  L0 ))
(assert (toLower sym348  L62 ))
(assert (toLower sym710  L94 ))
(assert (toLower sym430  L50 ))
(assert (toLower sym113  L4 ))
(assert (toLower sym690  L70 ))
(assert (toLower sym450  L66 ))
(assert (toLower sym249  L22 ))
(assert (toLower sym646  L98 ))
(assert (toLower sym666  L54 ))
(assert (toLower sym636  L10 ))
(assert (toLower sym460  L42 ))
(assert (toLower sym620  L8 ))
(assert (toLower sym323  L74 ))
(assert (toLower sym600  L30 ))
(assert (toLower sym180  L26 ))
(assert (toLower sym576  L58 ))
(assert (toLower sym384  L14 ))
(assert (toLower sym700  L46 ))
(assert (toLower sym20  L78 ))
(assert (toLower sym414  L34 ))
(assert (toLower sym284  L18 ))
(assert (toLower sym190  L38 ))
(assert (toLower sym656  L102 ))
(assert (toLower sym394  L83 ))
(assert (toLower "field"  L3 ))
(assert (toLower "name"  L11 ))
(assert (toLower sym484  L87 ))
(assert (toLower "length"  L7 ))
(assert (toLower sym210  L79 ))
(assert (toLower "option"  L35 ))
(assert (toLower "table"  L27 ))

(assert (not (= L0 L1 )))
(assert (= L2 L3 ))
(assert (= L4 L5 ))
(assert (not (= L6 L7 )))
(assert (= L8 L7 ))
(assert (not (= L10 L11 )))
(assert (not (= L12 L11 )))
(assert (not (= L14 L1 )))
(assert (not (= L16 L1 )))
(assert (= L18 L3 ))
(assert (= L20 L21 ))
(assert (= L22 L1 ))
(assert (not (= L24 L11 )))
(assert (not (= L26 L27 )))
(assert (not (= L28 L11 )))
(assert (not (= L30 L1 )))
(assert (= L32 L11 ))
(assert (= L34 L35 ))
(assert (not (= L36 L11 )))
(assert (not (= L38 L11 )))
(assert (= L40 L11 ))
(assert (not (= L42 L7 )))
(assert (not (= L44 L11 )))
(assert (not (= L46 L1 )))
(assert (= L48 L35 ))
(assert (not (= L50 L11 )))
(assert (not (= L52 L11 )))
(assert (not (= L54 L7 )))
(assert (not (= L56 L11 )))
(assert (= L58 L21 ))
(assert (= L60 L35 ))
(assert (not (= L62 L1 )))
(assert (not (= L64 L11 )))
(assert (not (= L66 L21 )))
(assert (= L68 L1 ))
(assert (not (= L70 L11 )))
(assert (not (= L72 L11 )))
(assert (= L74 L1 ))
(assert (not (= L76 L1 )))
(assert (= L78 "html" ))
(assert (= L79 L27 ))
(assert (= L81 L1 ))
(assert (not (= L83 L21 )))
(assert (not (= L85 L1 )))
(assert (not (= L87 L11 )))
(assert (not (= L78 "sql" )))
(assert (not (= L90 L1 )))
(assert (not (= L92 L11 )))
(assert (not (= L94 L3 )))
(assert (= L96 L11 ))
(assert (not (= L98 L1 )))
(assert (not (= L100 L1 )))
(assert (not (= L102 L21 )))
(assert (not (= L104 L21 )))
(check-sat)
(get-model)
(exit)
